c colouring generated by benchmark framework
p edge 74 301
v 1 2
v 2 2
v 3 1
v 4 7
v 5 10
v 6 6
v 7 7
v 8 6
v 9 0
v 10 5
v 11 7
v 12 5
v 13 8
v 14 2
v 15 0
v 16 10
v 17 5
v 18 1
v 19 3
v 20 1
v 21 0
v 22 6
v 23 9
v 24 8
v 25 3
v 26 4
v 27 2
v 28 8
v 29 0
v 30 6
v 31 5
v 32 5
v 33 5
v 34 10
v 35 3
v 36 1
v 37 2
v 38 4
v 39 3
v 40 6
v 41 0
v 42 9
v 43 3
v 44 3
v 45 1
v 46 3
v 47 2
v 48 4
v 49 1
v 50 5
v 51 10
v 52 9
v 53 10
v 54 3
v 55 4
v 56 5
v 57 8
v 58 8
v 59 9
v 60 10
v 61 5
v 62 1
v 63 4
v 64 2
v 65 8
v 66 1
v 67 6
v 68 6
v 69 3
v 70 6
v 71 2
v 72 3
v 73 1
v 74 7
